\ENCODING=ISO-8859-1
\Problem name: MDHFVRP

Minimize
 obj: 46999 X(1,2,1,4) + 46999 X(1,2,2,4) + 4840 X(1,3,1,4) + 4840 X(1,3,2,4)
      + 14141 X(1,4,1,4) + 14141 X(1,4,2,4) + 47264 X(2,1,1,4)
      + 47264 X(2,1,2,4) + 44965 X(2,3,1,4) + 44965 X(2,3,2,4)
      + 47144 X(2,4,1,4) + 47144 X(2,4,2,4) + 3812 X(3,1,1,4) + 3812 X(3,1,2,4)
      + 45667 X(3,2,1,4) + 45667 X(3,2,2,4) + 12296 X(3,4,1,4)
      + 12296 X(3,4,2,4) + 24828 X(4,1,1,4) + 25048 X(4,1,2,4)
      + 25739 X(4,2,1,4) + 25959 X(4,2,2,4) + 22529 X(4,3,1,4)
      + 22749 X(4,3,2,4) + 0 X(4,4,1,4) + 0 X(4,4,2,4) + 0 f(1,1) + 0 f(2,2)
      + 0 f(3,3) + 0 f(4,4)
Subject To
 c2_1:     X(1,1,1,4) + X(1,1,2,4) + X(2,1,1,4) + X(2,1,2,4) + X(3,1,1,4)
           + X(3,1,2,4) + X(4,1,1,4) + X(4,1,2,4)  = 1
 c2_2:     X(1,2,1,4) + X(1,2,2,4) + X(2,2,1,4) + X(2,2,2,4) + X(3,2,1,4)
           + X(3,2,2,4) + X(4,2,1,4) + X(4,2,2,4)  = 1
 c2_3:     X(1,3,1,4) + X(1,3,2,4) + X(2,3,1,4) + X(2,3,2,4) + X(3,3,1,4)
           + X(3,3,2,4) + X(4,3,1,4) + X(4,3,2,4)  = 1
 c3_1:     X(1,1,1,4) + X(1,1,2,4) + X(1,2,1,4) + X(1,2,2,4) + X(1,3,1,4)
           + X(1,3,2,4) + X(1,4,1,4) + X(1,4,2,4)  = 1
 c3_2:     X(2,1,1,4) + X(2,1,2,4) + X(2,2,1,4) + X(2,2,2,4) + X(2,3,1,4)
           + X(2,3,2,4) + X(2,4,1,4) + X(2,4,2,4)  = 1
 c3_3:     X(3,1,1,4) + X(3,1,2,4) + X(3,2,1,4) + X(3,2,2,4) + X(3,3,1,4)
           + X(3,3,2,4) + X(3,4,1,4) + X(3,4,2,4)  = 1
 c4_1_1_4: - X(1,2,1,4) - X(1,3,1,4) - X(1,4,1,4) + X(2,1,1,4) + X(3,1,1,4)
           + X(4,1,1,4)  = 0
 c4_1_2_4: X(1,2,1,4) - X(2,1,1,4) - X(2,3,1,4) - X(2,4,1,4) + X(3,2,1,4)
           + X(4,2,1,4)  = 0
 c4_1_3_4: X(1,3,1,4) + X(2,3,1,4) - X(3,1,1,4) - X(3,2,1,4) - X(3,4,1,4)
           + X(4,3,1,4)  = 0
 c4_1_4_4: X(1,4,1,4) + X(2,4,1,4) + X(3,4,1,4) - X(4,1,1,4) - X(4,2,1,4)
           - X(4,3,1,4)  = 0
 c4_2_1_4: - X(1,2,2,4) - X(1,3,2,4) - X(1,4,2,4) + X(2,1,2,4) + X(3,1,2,4)
           + X(4,1,2,4)  = 0
 c4_2_2_4: X(1,2,2,4) - X(2,1,2,4) - X(2,3,2,4) - X(2,4,2,4) + X(3,2,2,4)
           + X(4,2,2,4)  = 0
 c4_2_3_4: X(1,3,2,4) + X(2,3,2,4) - X(3,1,2,4) - X(3,2,2,4) - X(3,4,2,4)
           + X(4,3,2,4)  = 0
 c4_2_4_4: X(1,4,2,4) + X(2,4,2,4) + X(3,4,2,4) - X(4,1,2,4) - X(4,2,2,4)
           - X(4,3,2,4)  = 0
 c5:       f(4,1) + f(4,2) + f(4,3)  = 6
 c6_1:     - f(1,2) - f(1,3) - f(1,4) + f(2,1) + f(3,1) + f(4,1)  = 2
 c6_2:     f(1,2) - f(2,1) - f(2,3) - f(2,4) + f(3,2) + f(4,2)  = 2
 c6_3:     f(1,3) + f(2,3) - f(3,1) - f(3,2) - f(3,4) + f(4,3)  = 2
 c19_1_2:  - 99999 X(1,2,1,4) - 99999 X(1,2,2,4) - b(1) + b(2) >= -99286.4
 c19_1_3:  - 99999 X(1,3,1,4) - 99999 X(1,3,2,4) - b(1) + b(3) >= -99885.8
 c19_1_4:  - 99999 X(1,4,1,4) - 99999 X(1,4,2,4) - b(1) + b(4) >= -99676.8
 c19_2_1:  - 99999 X(2,1,1,4) - 99999 X(2,1,2,4) + b(1) - b(2) >= -99225.4
 c19_2_3:  - 99999 X(2,3,1,4) - 99999 X(2,3,2,4) - b(2) + b(3) >= -99288.7
 c19_2_4:  - 99999 X(2,4,1,4) - 99999 X(2,4,2,4) - b(2) + b(4) >= -99294.5
 c19_3_1:  - 99999 X(3,1,1,4) - 99999 X(3,1,2,4) + b(1) - b(3) >= -99885.8
 c19_3_2:  - 99999 X(3,2,1,4) - 99999 X(3,2,2,4) + b(2) - b(3) >= -99349.7
 c19_3_4:  - 99999 X(3,4,1,4) - 99999 X(3,4,2,4) - b(3) + b(4) >= -99740.1
 c19_4_1:  - 99999 X(4,1,1,4) - 99999 X(4,1,2,4) + b(1) - b(4) >= -99690.6
 c19_4_2:  - 99999 X(4,2,1,4) - 99999 X(4,2,2,4) + b(2) - b(4) >= -99400.5
 c19_4_3:  - 99999 X(4,3,1,4) - 99999 X(4,3,2,4) + b(3) - b(4) >= -99753.9
 c20_1:    b(1) >= 0
 c20_2:    b(2) >= 0
 c20_3:    b(3) >= 0
 c20_4:    b(4) >= 0
 c21_1:    b(1) <= 10000
 c21_2:    b(2) <= 10000
 c21_3:    b(3) <= 10000
 c21_4:    b(4) <= 100000
Bounds
 0 <= X(1,1,1,4) <= 1
 0 <= X(1,1,2,4) <= 1
 0 <= X(1,2,1,4) <= 1
 0 <= X(1,2,2,4) <= 1
 0 <= X(1,3,1,4) <= 1
 0 <= X(1,3,2,4) <= 1
 0 <= X(1,4,1,4) <= 1
 0 <= X(1,4,2,4) <= 1
 0 <= X(2,1,1,4) <= 1
 0 <= X(2,1,2,4) <= 1
 0 <= X(2,2,1,4) <= 1
 0 <= X(2,2,2,4) <= 1
 0 <= X(2,3,1,4) <= 1
 0 <= X(2,3,2,4) <= 1
 0 <= X(2,4,1,4) <= 1
 0 <= X(2,4,2,4) <= 1
 0 <= X(3,1,1,4) <= 1
 0 <= X(3,1,2,4) <= 1
 0 <= X(3,2,1,4) <= 1
 0 <= X(3,2,2,4) <= 1
 0 <= X(3,3,1,4) <= 1
 0 <= X(3,3,2,4) <= 1
 0 <= X(3,4,1,4) <= 1
 0 <= X(3,4,2,4) <= 1
 0 <= X(4,1,1,4) <= 1
 0 <= X(4,1,2,4) <= 1
 0 <= X(4,2,1,4) <= 1
 0 <= X(4,2,2,4) <= 1
 0 <= X(4,3,1,4) <= 1
 0 <= X(4,3,2,4) <= 1
 0 <= X(4,4,1,4) <= 1
 0 <= X(4,4,2,4) <= 1
 0 <= b(1) <= 99999
 0 <= b(2) <= 99999
 0 <= b(3) <= 99999
 0 <= b(4) <= 99999
 0 <= f(1,1) <= 20
 0 <= f(1,2) <= 20
 0 <= f(1,3) <= 20
 0 <= f(1,4) <= 20
 0 <= f(2,1) <= 20
 0 <= f(2,2) <= 20
 0 <= f(2,3) <= 20
 0 <= f(2,4) <= 20
 0 <= f(3,1) <= 20
 0 <= f(3,2) <= 20
 0 <= f(3,3) <= 20
 0 <= f(3,4) <= 20
 0 <= f(4,1) <= 20
 0 <= f(4,2) <= 20
 0 <= f(4,3) <= 20
 0 <= f(4,4) <= 20
Binaries
 X(1,1,1,4)  X(1,1,2,4)  X(1,2,1,4)  X(1,2,2,4)  X(1,3,1,4)  X(1,3,2,4) 
 X(1,4,1,4)  X(1,4,2,4)  X(2,1,1,4)  X(2,1,2,4)  X(2,2,1,4)  X(2,2,2,4) 
 X(2,3,1,4)  X(2,3,2,4)  X(2,4,1,4)  X(2,4,2,4)  X(3,1,1,4)  X(3,1,2,4) 
 X(3,2,1,4)  X(3,2,2,4)  X(3,3,1,4)  X(3,3,2,4)  X(3,4,1,4)  X(3,4,2,4) 
 X(4,1,1,4)  X(4,1,2,4)  X(4,2,1,4)  X(4,2,2,4)  X(4,3,1,4)  X(4,3,2,4) 
 X(4,4,1,4)  X(4,4,2,4) 
End
